ssat_solver_solve2
#level: 2
Abc_NtkNodeNum(s->pNtk): 1352  , BDD limit: 10240
level 1: 20 element
Exist
existence_eliminate_scope
Abc_NtkIsBddLogic(pNtk): 0
Abc_NtkIsStrash(pNtk): 1
existence_eliminate_scope_aig
exist by BDD failed
Abc_NtkNodeNum(s->pNtk): 46207583  , BDD limit: 55449099
Build BDD success
level 0: 20 element
Random
c ssat solving in ABC
#var: 40
s SATISFIABLE
  > Upper bound = 5.560799e-01
  > Lower bound = 5.560799e-01
FINISHED CPU 1927.43 MEM 0 MAXMEM 8151224 STALE 0 MAXMEM_RSS 7999420
<time name="ALL">1927530</time>
real 1927.74
user 2233.69
sys 832.09
